examples/con/graph-20-46.param
$ generated by rg.pl with seed 46
letting n be 20
$ 33 edges
letting E be {{10,19},{9,20},{14,17},{2,8},{1,6},{15,20},{5,7},{4,6},{2,12},{8,14},{9,17},{7,20},{2,18},{14,20},{16,17},{3,10},{7,16},{7,10},{2,4},{10,13},{3,18},{2,7},{11,17},{5,15},{3,9},{15,18},{5,18},{4,20},{1,5},{8,19},{3,15},{5,20},{10,15}}
